20180524 100300.00 98800.00
20171229 55707.19 54083.85
20170630 55707.19 53526.45
20170613 55748.69 53416.20
20170420 55748.69 53416.20
20161229 55748.69 52898.70
20160616 55748.69 52054.88
20160421 55611.19 51944.63
20160415 55611.19 51449.78
20151228 55642.19 51449.78
